# Objective value = 1.0358540660418081e+05
e[1] 991.2117934
e[2] 991.0402734
e[3] 9.8932507340002644e+02
e[4] 987.609873400053
e[5] 985.89467340008
e[6] 9.8417947340010608e+02
e[7] 9.8289550875752388e+02
e[8] 9.8161154411494158e+02
e[9] 9.8032757947235939e+02
e[10] 9.8015605947184542e+02
e[11] 9.7998453947133146e+02
e[12] 9.7981301947081772e+02
e[13] 9.7998453947081771e+02
e[14] 9.8015605947081770e+02
e[15] 9.8032757947287428e+02
e[16] 9.8015605947287429e+02
e[17] 9.7998453947287442e+02
e[18] 9.7981301947287443e+02
e[19] 9.8109057078193177e+02
e[20] 9.8236812209098935e+02
e[21] 9.8364567340004680e+02
e[22] 9.8536087339999972e+02
e[23] 9.8707607339999993e+02
e[24] 988.7912734
e[25] 988.9627934
e[26] 989.1343134
pi[1] 0
pi[2] 1
pi[3] 0
pi[4] 0
pi[5] 0
pi[6] 1
pi[7] 0
pi[8] 0
pi[9] 1
pi[10] 0
pi[11] 0
pi[12] 1
pi[13] 0
pi[14] 0
pi[15] 1
pi[16] 0
pi[17] 0
pi[18] 1
pi[19] 0
pi[20] 0
pi[21] 1
pi[22] 0
pi[23] 0
pi[24] 1
pi[25] 0
e_bar 9.7981301947287443e+02
B_minus_s[0] 0
B_minus_s[1] 0
B_minus_s[2] 1
B_minus_s[3] 1
B_minus_s[4] 1
B_minus_s[5] 1
B_minus_s[6] 1
B_minus_s[7] 1
B_minus_s[8] 1
B_minus_s[9] 1
B_minus_s[10] 1
B_minus_s[11] 1
B_minus_s[12] 0
B_minus_s[13] 0
B_minus_s[14] 0
B_minus_s[15] 1
B_minus_s[16] 1
B_minus_s[17] 1
B_minus_s[18] 0
B_minus_s[19] 0
B_minus_s[20] 0
B_minus_s[21] 0
B_minus_s[22] 0
B_minus_s[23] 0
B_minus_s[24] 0
B_minus_s[25] 0
B_add_s[0] 0
B_add_s[1] 0
B_add_s[2] 0
B_add_s[3] 0
B_add_s[4] 0
B_add_s[5] 0
B_add_s[6] 0
B_add_s[7] 0
B_add_s[8] 0
B_add_s[9] 0
B_add_s[10] 0
B_add_s[11] 0
B_add_s[12] 1
B_add_s[13] 1
B_add_s[14] 1
B_add_s[15] 0
B_add_s[16] 0
B_add_s[17] 0
B_add_s[18] 1
B_add_s[19] 1
B_add_s[20] 1
B_add_s[21] 1
B_add_s[22] 1
B_add_s[23] 1
B_add_s[24] 1
B_add_s[25] 0
g_s[0] 0.17152
g_s[1] 0.17152
g_s[2] 1.7151999999736063e+00
g_s[3] 1.7151999999735417e+00
g_s[4] 1.7151999999736582e+00
g_s[5] 1.7151999999735328e+00
g_s[6] 1.2839646425821911e+00
g_s[7] 1.2839646425823064e+00
g_s[8] 1.2839646425823514e+00
g_s[9] 1.7152000051383692e-01
g_s[10] 1.7152000051396693e-01
g_s[11] 1.7152000051378957e-01
g_s[12] 1.7151999999999834e-01
g_s[13] 1.7151999999999834e-01
g_s[14] 1.7152000205658169e-01
g_s[15] 1.7151999999999942e-01
g_s[16] 1.7151999999987311e-01
g_s[17] 1.7151999999999942e-01
g_s[18] 1.2775513090574449e+00
g_s[19] 1.2775513090575132e+00
g_s[20] 1.2775513090574577e+00
g_s[21] 1.7151999999526095e+00
g_s[22] 1.7151999999526089e+00
g_s[23] 1.7152000000000953e+00
g_s[24] 0.17152
g_s[25] 0.17152
eth_minus_s[0] 0
eth_minus_s[1] 0
eth_minus_s[2] 0
eth_minus_s[3] 0
eth_minus_s[4] 0
eth_minus_s[5] 0
eth_minus_s[6] 0
eth_minus_s[7] 0
eth_minus_s[8] 0
eth_minus_s[9] 0
eth_minus_s[10] 0
eth_minus_s[11] 0
eth_minus_s[12] 0
eth_minus_s[13] 0
eth_minus_s[14] 0
eth_minus_s[15] 0
eth_minus_s[16] 0
eth_minus_s[17] 0
eth_minus_s[18] 0
eth_minus_s[19] 0
eth_minus_s[20] 0
eth_minus_s[21] 0
eth_minus_s[22] 0
eth_minus_s[23] 0
eth_minus_s[24] 0
eth_minus_s[25] 0
eth_add_s[0] 0
eth_add_s[1] 0
eth_add_s[2] 0
eth_add_s[3] 0
eth_add_s[4] 0
eth_add_s[5] 0
eth_add_s[6] 0
eth_add_s[7] 0
eth_add_s[8] 0
eth_add_s[9] 0
eth_add_s[10] 0
eth_add_s[11] 0
eth_add_s[12] 1.7151999999999834e-01
eth_add_s[13] 1.7151999999999834e-01
eth_add_s[14] 1.7152000205658169e-01
eth_add_s[15] 0
eth_add_s[16] 0
eth_add_s[17] 0
eth_add_s[18] 1.2775513090574449e+00
eth_add_s[19] 1.2775513090575146e+00
eth_add_s[20] 1.2775513090574577e+00
eth_add_s[21] 1.7151999999526080e+00
eth_add_s[22] 1.7151999999526095e+00
eth_add_s[23] 1.7152000000000953e+00
eth_add_s[24] 1.7151999999999340e-01
eth_add_s[25] 0
L2R_v[0] 0.1
L2R_v[1] 1.3587513128415612e+01
L2R_v[2] 1.5382222818256862e+01
L2R_v[3] 1.6254704105269617e+01
L2R_v[4] 1.7075422235179094e+01
L2R_v[5] 1.7851591478642721e+01
L2R_v[6] 1.8373131907955191e+01
L2R_v[7] 1.8875793435254650e+01
L2R_v[8] 1.9361088912346407e+01
L2R_v[9] 1.9304725218302934e+01
L2R_v[10] 1.9248702160080185e+01
L2R_v[11] 1.9193018228568469e+01
L2R_v[12] 1.8971227758910484e+01
L2R_v[13] 1.8748830684786231e+01
L2R_v[14] 1.8525787543742808e+01
L2R_v[15] 1.8474531017334552e+01
L2R_v[16] 18.42359218657
L2R_v[17] 1.8372969600496166e+01
L2R_v[18] 1.7576284793290426e+01
L2R_v[19] 1.6749384957012605e+01
L2R_v[20] 1.5887491342292826e+01
L2R_v[21] 1.4712000901358358e+01
L2R_v[22] 1.3446079833782289e+01
L2R_v[23] 1.2061204592538090e+01
L2R_v[24] 1.0201549190424585e+01
L2R_v[25] 0.1
L2R_v2[0] 1.0000000000000002e-02
L2R_v2[1] 1.8462051301486659e+02
L2R_v2[2] 2.3661277872996934e+02
L2R_v2[3] 2.6421540546130973e+02
L2R_v2[4] 2.9157004443071338e+02
L2R_v2[5] 318.679318249316
L2R_v2[6] 3.3757197604116817e+02
L2R_v2[7] 3.5629557774853066e+02
L2R_v2[8] 3.7485176381318217e+02
L2R_v2[9] 3.7267241569509531e+02
L2R_v2[10] 3.7051253478790989e+02
L2R_v2[11] 3.6837194866212121e+02
L2R_v2[12] 3.5990748261888012e+02
L2R_v2[13] 3.5151865198111557e+02
L2R_v2[14] 3.4320480411586624e+02
L2R_v2[15] 3.4130829631043747e+02
L2R_v2[16] 3.3942874905703223e+02
L2R_v2[17] 3.3756601194075046e+02
L2R_v2[18] 3.0892578713484960e+02
L2R_v2[19] 2.8054189643819933e+02
L2R_v2[20] 2.5241238115142946e+02
L2R_v2[21] 2.1644297052156926e+02
L2R_v2[22] 1.8079706289644673e+02
L2R_v2[23] 1.4547265622306190e+02
L2R_v2[24] 1.0407160588465250e+02
L2R_v2[25] 1.0000000000000002e-02
L2R_E_hat[0] 5.0000000000000010e-03
L2R_E_hat[1] 92.3102565074333
L2R_E_hat[2] 1.1830638936498467e+02
L2R_E_hat[3] 1.3210770273065486e+02
L2R_E_hat[4] 1.4578502221535669e+02
L2R_E_hat[5] 159.339659124658
L2R_E_hat[6] 1.6878598802058409e+02
L2R_E_hat[7] 1.7814778887426533e+02
L2R_E_hat[8] 1.8742588190659109e+02
L2R_E_hat[9] 1.8633620784754766e+02
L2R_E_hat[10] 1.8525626739395494e+02
L2R_E_hat[11] 1.8418597433106061e+02
L2R_E_hat[12] 1.7995374130944006e+02
L2R_E_hat[13] 1.7575932599055778e+02
L2R_E_hat[14] 1.7160240205793312e+02
L2R_E_hat[15] 1.7065414815521873e+02
L2R_E_hat[16] 1.6971437452851612e+02
L2R_E_hat[17] 1.6878300597037523e+02
L2R_E_hat[18] 1.5446289356742480e+02
L2R_E_hat[19] 1.4027094821909967e+02
L2R_E_hat[20] 1.2620619057571473e+02
L2R_E_hat[21] 1.0822148526078463e+02
L2R_E_hat[22] 9.0398531448223366e+01
L2R_E_hat[23] 7.2736328111530952e+01
L2R_E_hat[24] 5.2035802942326249e+01
L2R_E_hat[25] 5.0000000000000010e-03
L2R_a[1] 1.0763206215885412e+00
L2R_a[2] 3.0312654917853754e-01
L2R_a[3] 1.6092949353626612e-01
L2R_a[4] 1.5948366936452638e-01
L2R_a[5] 1.5805313560286055e-01
L2R_a[6] 1.1014842462600405e-01
L2R_a[7] 1.0916278980505179e-01
L2R_a[8] 1.0818671912693256e-01
L2R_a[9] -1.2706087442203806e-02
L2R_a[10] -1.2592589244318702e-02
L2R_a[11] -1.2480096349048004e-02
L2R_a[12] -4.9349732061806595e-02
L2R_a[13] -4.8908760714578836e-02
L2R_a[14] -4.8471594363626913e-02
L2R_a[15] -1.1057065096949481e-02
L2R_a[16] -1.0958181281513824e-02
L2R_a[17] -1.0860174418620305e-02
L2R_a[18] -1.6697892260903013e-01
L2R_a[19] -1.6548443736386576e-01
L2R_a[20] -1.6400137177454477e-01
L2R_a[21] -0.209709716825204
L2R_a[22] -2.0782362188156234e-01
L2R_a[23] -2.0594919935509148e-01
L2R_a[24] -2.4137739236479350e-01
L2R_a[25] -6.0670245968197589e-01
L2R_f[1] 200
L2R_f[2] 2.6092652383514196e+01
L2R_f[3] 0
L2R_f[4] 0
L2R_f[5] 0
L2R_f[6] 0
L2R_f[7] 0
L2R_f[8] 0
L2R_f[9] 0
L2R_f[10] 0
L2R_f[11] 0
L2R_f[12] 0
L2R_f[13] 0
L2R_f[14] 0
L2R_f[15] 0
L2R_f[16] 0
L2R_f[17] 0
L2R_f[18] 0
L2R_f[19] 0
L2R_f[20] 0
L2R_f[21] 0
L2R_f[22] 0
L2R_f[23] 0
L2R_f[24] 0
L2R_f[25] 0
L2R_b[1] 0
L2R_b[2] 0
L2R_b[3] 0
L2R_b[4] 0
L2R_b[5] 0
L2R_b[6] 0
L2R_b[7] 0
L2R_b[8] 0
L2R_b[9] 0
L2R_b[10] 0
L2R_b[11] 0
L2R_b[12] 0
L2R_b[13] 0
L2R_b[14] 0
L2R_b[15] 0
L2R_b[16] 0
L2R_b[17] 0
L2R_b[18] 0
L2R_b[19] 0
L2R_b[20] 0
L2R_b[21] 0
L2R_b[22] 1.9693508689374023e-08
L2R_b[23] 0
L2R_b[24] 3.8111661024965684e+01
L2R_b[25] 1.0687144845998962e+02
L2R_f_max[1] 200
L2R_f_max[2] 200
L2R_f_max[3] 200
L2R_f_max[4] 200
L2R_f_max[5] 200
L2R_f_max[6] 200
L2R_f_max[7] 200
L2R_f_max[8] 200
L2R_f_max[9] 200
L2R_f_max[10] 200
L2R_f_max[11] 200
L2R_f_max[12] 200
L2R_f_max[13] 200
L2R_f_max[14] 200
L2R_f_max[15] 200
L2R_f_max[16] 200
L2R_f_max[17] 200
L2R_f_max[18] 200
L2R_f_max[19] 200
L2R_f_max[20] 200
L2R_f_max[21] 200
L2R_f_max[22] 200
L2R_f_max[23] 200
L2R_f_max[24] 200
L2R_f_max[25] 200
L2R_b_max[1] 200
L2R_b_max[2] 200
L2R_b_max[3] 200
L2R_b_max[4] 200
L2R_b_max[5] 200
L2R_b_max[6] 200
L2R_b_max[7] 200
L2R_b_max[8] 200
L2R_b_max[9] 200
L2R_b_max[10] 200
L2R_b_max[11] 200
L2R_b_max[12] 200
L2R_b_max[13] 200
L2R_b_max[14] 200
L2R_b_max[15] 200
L2R_b_max[16] 200
L2R_b_max[17] 200
L2R_b_max[18] 200
L2R_b_max[19] 200
L2R_b_max[20] 200
L2R_b_max[21] 200
L2R_b_max[22] 200
L2R_b_max[23] 200
L2R_b_max[24] 200
L2R_b_max[25] 200
L2R_gamma[1] 1
L2R_gamma[2] 1
L2R_gamma[3] 0
L2R_gamma[4] 0
L2R_gamma[5] 0
L2R_gamma[6] 0
L2R_gamma[7] 0
L2R_gamma[8] 0
L2R_gamma[9] 0
L2R_gamma[10] 0
L2R_gamma[11] 0
L2R_gamma[12] 0
L2R_gamma[13] 0
L2R_gamma[14] 0
L2R_gamma[15] 0
L2R_gamma[16] 0
L2R_gamma[17] 0
L2R_gamma[18] 0
L2R_gamma[19] 0
L2R_gamma[20] 0
L2R_gamma[21] 0
L2R_gamma[22] 0
L2R_gamma[23] 1
L2R_gamma[24] 0
L2R_gamma[25] 0
L2R_t[1] 1.2623354868471074e+01
L2R_t[2] 5.9434722342006534e+00
L2R_t[3] 5.4256390840345219e+00
L2R_t[4] 5.1492172571848833e+00
L2R_t[5] 4.9132384225546950e+00
L2R_t[6] 4.7358694416472851e+00
L2R_t[7] 4.6055352930242925e+00
L2R_t[8] 4.4864440449785334e+00
L2R_t[9] 4.43596929668075
L2R_t[10] 4.4489004917882333e+00
L2R_t[11] 4.4618283989241068e+00
L2R_t[12] 4.4944106290743786e+00
L2R_t[13] 4.5473408476010535e+00
L2R_t[14] 4.6016874126807243e+00
L2R_t[15] 4.6356446600262569e+00
L2R_t[16] 4.6484837709676459e+00
L2R_t[17] 4.6613138918077155e+00
L2R_t[18] 4.7735142852577095e+00
L2R_t[19] 4.9997449601153345e+00
L2R_t[20] 5.2590726581486393e+00
L2R_t[21] 5.6136059904806537e+00
L2R_t[22] 6.1036609082554207e+00
L2R_t[23] 6.7442340222918595e+00
L2R_t[24] 7.7584836184557817e+00
L2R_t[25] 1.6813132672142896e+01
L2R_Psi_t[1] 7.3596985006131321e-02
L2R_Psi_t[2] 6.5010110007876432e-02
L2R_Psi_t[3] 6.1520652213077905e-02
L2R_Psi_t[4] 5.8563705463808347e-02
L2R_Psi_t[5] 5.6017414465172409e-02
L2R_Psi_t[6] 0.0544273019911542
L2R_Psi_t[7] 5.2977905402136205e-02
L2R_Psi_t[8] 5.1649987437848238e-02
L2R_Psi_t[9] 5.1800789070564776e-02
L2R_Psi_t[10] 5.1951554487929472e-02
L2R_Psi_t[11] 0.0521022794422036
L2R_Psi_t[12] 5.2711401273150382e-02
L2R_Psi_t[13] 5.3336659538441342e-02
L2R_Psi_t[14] 5.3978811839374044e-02
L2R_Psi_t[15] 5.4128572956014413e-02
L2R_Psi_t[16] 5.4278231404238528e-02
L2R_Psi_t[17] 5.4427782863665265e-02
L2R_Psi_t[18] 0.0568948450574567
L2R_Psi_t[19] 5.9703684795979275e-02
L2R_Psi_t[20] 0.0629425992093528
L2R_Psi_t[21] 6.7971719598499347e-02
L2R_Psi_t[22] 7.4371118747010065e-02
L2R_Psi_t[23] 8.2910458265393366e-02
L2R_Psi_t[24] 9.8024327612773132e-02
L2R_phi_n[1] 1.7925500662985480e+04
L2R_phi_n[2] 4.2301238459880342e+03
L2R_phi_n[3] 1.3396639713665486e+03
L2R_phi_n[4] 1.2714116684407118e+03
L2R_phi_n[5] 1.2131452895196778e+03
L2R_phi_n[6] 1.1693504794190826e+03
L2R_phi_n[7] 1.1371692081541462e+03
L2R_phi_n[8] 1.1077639617230946e+03
L2R_phi_n[9] 1.0953010609088271e+03
L2R_phi_n[10] 1.0984939485896871e+03
L2R_phi_n[11] 1.1016860244257052e+03
L2R_phi_n[12] 1.1097310195245379e+03
L2R_phi_n[13] 1.1228002092842107e+03
L2R_phi_n[14] 1.1362191142421541e+03
L2R_phi_n[15] 1.1446036197595695e+03
L2R_phi_n[16] 1.1477737706092953e+03
L2R_phi_n[17] 1.1509417016809173e+03
L2R_phi_n[18] 1.1786455025327678e+03
L2R_phi_n[19] 1.2345049284235392e+03
L2R_phi_n[20] 1.2985364588021332e+03
L2R_phi_n[21] 1.3860755532050996e+03
L2R_phi_n[22] 1.5070767674704741e+03
L2R_phi_n[23] 1.6652429684671258e+03
L2R_phi_n[24] 7.37681375539978e-07
L2R_phi_n[25] 1.2703003449132666e-07
L2R_phi_b[1] 5.7300171511952158e+03
L2R_phi_b[2] 0
L2R_phi_b[3] 0
L2R_phi_b[4] 0
L2R_phi_b[5] 0
L2R_phi_b[6] 0
L2R_phi_b[7] 0
L2R_phi_b[8] 0
L2R_phi_b[9] 0
L2R_phi_b[10] 0
L2R_phi_b[11] 0
L2R_phi_b[12] 0
L2R_phi_b[13] 0
L2R_phi_b[14] 0
L2R_phi_b[15] 0
L2R_phi_b[16] 0
L2R_phi_b[17] 0
L2R_phi_b[18] 0
L2R_phi_b[19] 0
L2R_phi_b[20] 0
L2R_phi_b[21] 0
L2R_phi_b[22] 0
L2R_phi_b[23] 0
L2R_phi_b[24] 1.7241074701040382e+03
L2R_phi_b[25] 3.7362517048063164e+03
L2R_w0[1] 2.0905450000000005e+00
L2R_w0[2] 3.4226909632551061e+00
L2R_w0[3] 3.7782288453637181e+00
L2R_w0[4] 3.9661962357301555e+00
L2R_w0[5] 4.1520444267043928e+00
L2R_w0[6] 4.3358611651112522e+00
L2R_w0[7] 4.4637745369655537e+00
L2R_w0[8] 4.5904040310309453e+00
L2R_w0[9] 4.7157751361266786e+00
L2R_w0[10] 4.7010570091574886e+00
L2R_w0[11] 4.6864687572902
L2R_w0[12] 4.6720092449437587e+00
L2R_w0[13] 4.6148166690600441e+00
L2R_w0[14] 4.5581097785881557e+00
L2R_w0[15] 4.5018839446818095e+00
L2R_w0[16] 4.4890543299877219e+00
L2R_w0[17] 4.4763380722990957e+00
L2R_w0[18] 4.4637341796997410e+00
L2R_w0[19] 4.2697652073507690e+00
L2R_w0[20] 4.0771662994270192e+00
L2R_w0[21] 3.8858778926387618e+00
L2R_w0[22] 3.6405569172235124e+00
L2R_w0[23] 3.3964524911979703e+00
L2R_w0[24] 3.1532720704567758e+00
L2R_w0[25] 2.8659406203164024e+00
L2R_wi[1] -3.4593999999997322e+00
L2R_wi[2] -3.4593999999466178e+01
L2R_wi[3] -3.4593999999466355e+01
L2R_wi[4] -3.4593999999468707e+01
L2R_wi[5] -3.4593999999491409e+01
L2R_wi[6] -2.5896381089951319e+01
L2R_wi[7] -2.5896381089955867e+01
L2R_wi[8] -2.5896381089956776e+01
L2R_wi[9] -3.4594000103662381e+00
L2R_wi[10] -3.4594000103662381e+00
L2R_wi[11] -3.4594000103626605e+00
L2R_wi[12] 3.4593999999999663e+00
L2R_wi[13] 3.4593999999999663e+00
L2R_wi[14] 3.4594000414793529e+00
L2R_wi[15] -3.4593999999999880e+00
L2R_wi[16] -3.4593999999974403e+00
L2R_wi[17] -3.4593999999999880e+00
L2R_wi[18] 2.5767030075520779e+01
L2R_wi[19] 2.5767030075521689e+01
L2R_wi[20] 2.5767030075519870e+01
L2R_wi[21] 3.4593999999044172e+01
L2R_wi[22] 3.4593999999044172e+01
L2R_wi[23] 34.5940000000046
L2R_wi[24] 3.4593999999997322e+00
L2R_wi[25] 3.4593999999997322e+00
L2R_wtn[1] 2.9900000000000005e-05
L2R_wtn[2] 5.5201533391445112e-01
L2R_wtn[3] 7.0747220840260838e-01
L2R_wtn[4] 7.9000406232931608e-01
L2R_wtn[5] 0.871794432847833
L2R_wtn[6] 9.5285116156545480e-01
L2R_wtn[7] 1.0093402083630929e+00
L2R_wtn[8] 1.0653237774681068e+00
L2R_wtn[9] 1.1208067738014147e+00
L2R_wtn[10] 1.1142905229283351e+00
L2R_wtn[11] 1.1078324790158507e+00
L2R_wtn[12] 1.1014321264997424e+00
L2R_wtn[13] 1.0761233730304516e+00
L2R_wtn[14] 1.0510407694235355e+00
L2R_wtn[15] 1.02618236430644
L2R_wtn[16] 1.0205118059682081e+00
L2R_wtn[17] 1.0148919596805264e+00
L2R_wtn[18] 1.0093223757028440e+00
L2R_wtn[19] 9.2368810353320041e-01
L2R_wtn[20] 8.3882027035021611e-01
L2R_wtn[21] 7.5471301964277415e-01
L2R_wtn[22] 6.4716448185949216e-01
L2R_wtn[23] 5.4058321806037579e-01
L2R_wtn[24] 4.3496324210695508e-01
L2R_wtn[25] 0.311174101595111
L2R_T 1.4688379916079509e+02
L2R_varpi[0] 60
L2R_varpi[1] 1.4523673403212577e+01
L2R_varpi[2] 1.4523673403212577e+01
L2R_varpi[3] 1.4523673404506063e+01
L2R_varpi[4] 1.4523673404506368e+01
L2R_varpi[5] 1.4523673405999691e+01
L2R_varpi[6] 1.4523673407574719e+01
L2R_varpi[7] 14.5236734075756
L2R_varpi[8] 1.4523673409292854e+01
L2R_varpi[9] 1.4523673411069151e+01
L2R_varpi[10] 1.4523673411069495e+01
L2R_varpi[11] 1.4523673411069495e+01
L2R_varpi[12] 1.4523673411070092e+01
L2R_varpi[13] 1.4523673411070092e+01
L2R_varpi[14] 1.4523673411070092e+01
L2R_varpi[15] 1.4523673411070661e+01
L2R_varpi[16] 1.4523673411070661e+01
L2R_varpi[17] 1.4523673413813274e+01
L2R_varpi[18] 1.4523673416807030e+01
L2R_varpi[19] 1.4523673420205343e+01
L2R_varpi[20] 1.4523673420205343e+01
L2R_varpi[21] 1.4523673420205343e+01
L2R_varpi[22] 1.4523673432125449e+01
L2R_varpi[23] 1.4523673432281516e+01
L2R_varpi[24] 2.4186395451545870e+01
L2R_varpi[25] 60
L2R_kappa_plus[0] 0
L2R_kappa_plus[1] 0
L2R_kappa_plus[2] 0
L2R_kappa_plus[3] 0
L2R_kappa_plus[4] 0
L2R_kappa_plus[5] 0
L2R_kappa_plus[6] 0
L2R_kappa_plus[7] 0
L2R_kappa_plus[8] 0
L2R_kappa_plus[9] 0
L2R_kappa_plus[10] 0
L2R_kappa_plus[11] 0
L2R_kappa_plus[12] 0
L2R_kappa_plus[13] 0
L2R_kappa_plus[14] 0
L2R_kappa_plus[15] 0
L2R_kappa_plus[16] 0
L2R_kappa_plus[17] 0
L2R_kappa_plus[18] 0
L2R_kappa_plus[19] 0
L2R_kappa_plus[20] 0
L2R_kappa_plus[21] 2.4607088319211295e-07
L2R_kappa_plus[22] 0
L2R_kappa_plus[23] 3.7914760018380389e+02
L2R_kappa_plus[24] 4.9061445234362668e+02
L2R_kappa_plus[25] 0
L2R_kappa_minus[0] 500
L2R_kappa_minus[1] 0
L2R_kappa_minus[2] 0
L2R_kappa_minus[3] 0
L2R_kappa_minus[4] 0
L2R_kappa_minus[5] 0
L2R_kappa_minus[6] 0
L2R_kappa_minus[7] 0
L2R_kappa_minus[8] 0
L2R_kappa_minus[9] 0
L2R_kappa_minus[10] 0
L2R_kappa_minus[11] 0
L2R_kappa_minus[12] 0
L2R_kappa_minus[13] 0
L2R_kappa_minus[14] 0
L2R_kappa_minus[15] 0
L2R_kappa_minus[16] 0
L2R_kappa_minus[17] 0
L2R_kappa_minus[18] 0
L2R_kappa_minus[19] 0
L2R_kappa_minus[20] 0
L2R_kappa_minus[21] 0
L2R_kappa_minus[22] 2.2222222222222223e+02
L2R_kappa_minus[23] 379.147600244577
L2R_kappa_minus[24] 4.9061445235626911e+02
L2R_kappa_minus[25] 0
L2R_xi[1] 0
L2R_xi[2] 0
L2R_xi[3] 1.6297904614438394e-07
L2R_xi[4] 0
L2R_xi[5] 1.8815858698964923e-07
L2R_xi[6] 1.9845359905557448e-07
L2R_xi[7] 0
L2R_xi[8] 2.1637389082894128e-07
L2R_xi[9] 2.2381353838240664e-07
L2R_xi[10] 0
L2R_xi[11] 0
L2R_xi[12] 0
L2R_xi[13] 0
L2R_xi[14] 0
L2R_xi[15] 0
L2R_xi[16] 0
L2R_xi[17] 3.4556934431019987e-07
L2R_xi[18] 3.7703399556496221e-07
L2R_xi[19] 4.2818739440419671e-07
L2R_xi[20] 0
L2R_xi[21] 0
L2R_xi[22] 1.5019332303995857e-06
L2R_xi[23] 0
L2R_xi[24] 2.9416104445313254e+03
L2R_xi[25] 8.2487658779115445e+03
R2L_v[0] 0.1
R2L_v[1] 1.0201549190405220e+01
R2L_v[2] 1.2646086302964610e+01
R2L_v[3] 1.3977823643397906e+01
R2L_v[4] 1.5203877921508854e+01
R2L_v[5] 1.6348108024581673e+01
R2L_v[6] 1.7194305091316117e+01
R2L_v[7] 1.8007890019099747e+01
R2L_v[8] 1.8793151868491030e+01
R2L_v[9] 1.9015425100760041e+01
R2L_v[10] 1.9237099376186883e+01
R2L_v[11] 1.9458212121612725e+01
R2L_v[12] 1.9515506240082395e+01
R2L_v[13] 1.9573146626251351e+01
R2L_v[14] 1.9631134806914741e+01
R2L_v[15] 1.9851333984617629e+01
R2L_v[16] 2.0071067809885733e+01
R2L_v[17] 2.0290368244213347e+01
R2L_v[18] 1.9839218970195816e+01
R2L_v[19] 1.9373359490622541e+01
R2L_v[20] 1.8891659882404110e+01
R2L_v[21] 1.8169503478809570e+01
R2L_v[22] 1.7410488936630060e+01
R2L_v[23] 1.6609488723680155e+01
R2L_v[24] 1.3587513128415612e+01
R2L_v[25] 0.1
R2L_v2[0] 1.0000000000000002e-02
R2L_v2[1] 1.0407160588425741e+02
R2L_v2[2] 1.5992349877634041e+02
R2L_v2[3] 1.9537955380145783e+02
R2L_v2[4] 2.3115790384850391e+02
R2L_v2[5] 2.6726063598035410e+02
R2L_v2[6] 2.9564412757060705e+02
R2L_v2[7] 3.2428410293780138e+02
R2L_v2[8] 353.182556432834
R2L_v2[9] 3.6158639104621051e+02
R2L_v2[10] 370.06599169558
R2L_v2[11] 3.7862201825843789e+02
R2L_v2[12] 3.8085498308578974e+02
R2L_v2[13] 3.8310806812204947e+02
R2L_v2[14] 3.8538145306767007e+02
R2L_v2[15] 3.9407545999047352e+02
R2L_v2[16] 4.0284776208339440e+02
R2L_v2[17] 4.1169904258244793e+02
R2L_v2[18] 3.9359460840911220e+02
R2L_v2[19] 3.7532705697757808e+02
R2L_v2[20] 3.5689481311243583e+02
R2L_v2[21] 3.3013085666647260e+02
R2L_v2[22] 3.0312512501251757e+02
R2L_v2[23] 2.7587511566205831e+02
R2L_v2[24] 1.8462051302128526e+02
R2L_v2[25] 1.0000000000000002e-02
R2L_E_hat[0] 5.0000000000000010e-03
R2L_E_hat[1] 3.1250019858173710e+02
R2L_E_hat[2] 3.1250019858173710e+02
R2L_E_hat[3] 3.1250019858173710e+02
R2L_E_hat[4] 3.1250019858173664e+02
R2L_E_hat[5] 3.1250019858173710e+02
R2L_E_hat[6] 3.1250019858173664e+02
R2L_E_hat[7] 3.1250019858173710e+02
R2L_E_hat[8] 3.1250019858173710e+02
R2L_E_hat[9] 3.1250019858173710e+02
R2L_E_hat[10] 3.1250019858173710e+02
R2L_E_hat[11] 3.1250019858173710e+02
R2L_E_hat[12] 3.1250019858173664e+02
R2L_E_hat[13] 3.1250019858173778e+02
R2L_E_hat[14] 3.1250019858173664e+02
R2L_E_hat[15] 4.0376498731296851e+02
R2L_E_hat[16] 3.1250019858173664e+02
R2L_E_hat[17] 3.1250019858173710e+02
R2L_E_hat[18] 3.1250019858173630e+02
R2L_E_hat[19] 3.1250019858173846e+02
R2L_E_hat[20] 3.1250019858173664e+02
R2L_E_hat[21] 3.1250019858173596e+02
R2L_E_hat[22] 5.6829444374413742e+02
R2L_E_hat[23] 3.1250019858173630e+02
R2L_E_hat[24] 3.1250019858173710e+02
R2L_E_hat[25] 3.1250019858173664e+02
R2L_a[1] -6.0670245967967240e-01
R2L_a[2] -0.325629039715969
R2L_a[3] -2.0671673871920176e-01
R2L_a[4] -2.0859579085264734e-01
R2L_a[5] -2.1048701102991005e-01
R2L_a[6] -1.6548211048421724e-01
R2L_a[7] -1.6697746832552651e-01
R2L_a[8] -1.6848445367906151e-01
R2L_a[9] -0.0489962372514956
R2L_a[10] -4.9437970203880084e-02
R2L_a[11] -4.9883550389796576e-02
R2L_a[12] -1.3018684860959695e-02
R2L_a[13] -0.0131359901834176
R2L_a[14] -1.3254343199746721e-02
R2L_a[15] -5.0688006779404660e-02
R2L_a[16] -5.1144485149958285e-02
R2L_a[17] -5.1604946939444840e-02
R2L_a[18] 1.0555290446207888e-01
R2L_a[19] 1.0650391459616415e-01
R2L_a[20] 1.0746410835554032e-01
R2L_a[21] 1.5603985801051373e-01
R2L_a[22] 1.5744946160188361e-01
R2L_a[23] 1.5887365526153924e-01
R2L_a[24] 5.3203476353062640e-01
R2L_a[25] 1.0763206216259635e+00
R2L_f[1] 0
R2L_f[2] 0
R2L_f[3] 0
R2L_f[4] 0
R2L_f[5] 0
R2L_f[6] 0
R2L_f[7] 0
R2L_f[8] 0
R2L_f[9] 0
R2L_f[10] 0
R2L_f[11] 0
R2L_f[12] 0
R2L_f[13] 0
R2L_f[14] 0
R2L_f[15] 0
R2L_f[16] 0
R2L_f[17] 0
R2L_f[18] 0
R2L_f[19] 0
R2L_f[20] 0
R2L_f[21] 0
R2L_f[22] 0
R2L_f[23] 0
R2L_f[24] 1.0005369020617559e+02
R2L_f[25] 200
R2L_b[1] 1.0687144845956260e+02
R2L_b[2] 2.2596831391839665e+01
R2L_b[3] 1.0227970752582792e-08
R2L_b[4] 0
R2L_b[5] 0
R2L_b[6] 0
R2L_b[7] 0
R2L_b[8] 0
R2L_b[9] 0
R2L_b[10] 0
R2L_b[11] 0
R2L_b[12] 0
R2L_b[13] 0
R2L_b[14] 0
R2L_b[15] 0
R2L_b[16] 0
R2L_b[17] 0
R2L_b[18] 0
R2L_b[19] 0
R2L_b[20] 0
R2L_b[21] 0
R2L_b[22] 0
R2L_b[23] 0
R2L_b[24] 0
R2L_b[25] 0
R2L_f_max[1] 200
R2L_f_max[2] 200
R2L_f_max[3] 200
R2L_f_max[4] 200
R2L_f_max[5] 200
R2L_f_max[6] 200
R2L_f_max[7] 200
R2L_f_max[8] 200
R2L_f_max[9] 200
R2L_f_max[10] 200
R2L_f_max[11] 200
R2L_f_max[12] 200
R2L_f_max[13] 200
R2L_f_max[14] 200
R2L_f_max[15] 1.7472991793437743e+02
R2L_f_max[16] 200
R2L_f_max[17] 200
R2L_f_max[18] 200
R2L_f_max[19] 200
R2L_f_max[20] 200
R2L_f_max[21] 200
R2L_f_max[22] 1.4721715512577597e+02
R2L_f_max[23] 200
R2L_f_max[24] 200
R2L_f_max[25] 200
R2L_b_max[1] 200
R2L_b_max[2] 200
R2L_b_max[3] 200
R2L_b_max[4] 200
R2L_b_max[5] 200
R2L_b_max[6] 200
R2L_b_max[7] 200
R2L_b_max[8] 200
R2L_b_max[9] 200
R2L_b_max[10] 200
R2L_b_max[11] 200
R2L_b_max[12] 200
R2L_b_max[13] 200
R2L_b_max[14] 200
R2L_b_max[15] 1.7472991793437743e+02
R2L_b_max[16] 200
R2L_b_max[17] 200
R2L_b_max[18] 200
R2L_b_max[19] 200
R2L_b_max[20] 200
R2L_b_max[21] 200
R2L_b_max[22] 1.4721715512577612e+02
R2L_b_max[23] 200
R2L_b_max[24] 200
R2L_b_max[25] 200
R2L_gamma[1] 0
R2L_gamma[2] 0
R2L_gamma[3] 0
R2L_gamma[4] 0
R2L_gamma[5] 0
R2L_gamma[6] 0
R2L_gamma[7] 0
R2L_gamma[8] 0
R2L_gamma[9] 0
R2L_gamma[10] 0
R2L_gamma[11] 0
R2L_gamma[12] 0
R2L_gamma[13] 0
R2L_gamma[14] 0
R2L_gamma[15] 0
R2L_gamma[16] 0
R2L_gamma[17] 0
R2L_gamma[18] 0
R2L_gamma[19] 0
R2L_gamma[20] 1
R2L_gamma[21] 1
R2L_gamma[22] 0
R2L_gamma[23] 0
R2L_gamma[24] 1
R2L_gamma[25] 1
R2L_t[1] 1.6813132672174760e+01
R2L_t[2] 7.5940555356642090e+00
R2L_t[3] 6.4584888513844625e+00
R2L_t[4] 5.8880495723859
R2L_t[5] 5.4432665754029621e+00
R2L_t[6] 5.1167824539760378e+00
R2L_t[7] 4.8750274369785762e+00
R2L_t[8] 4.6628606637603323e+00
R2L_t[9] 4.5366935734147278e+00
R2L_t[10] 4.4840376556225037e+00
R2L_t[11] 4.4327230865148808e+00
R2L_t[12] 4.4009218085477269e+00
R2L_t[13] 4.3879794459950459e+00
R2L_t[14] 4.3750397832518839e+00
R2L_t[15] 4.34434167746247
R2L_t[16] 4.2964648424873584e+00
R2L_t[17] 4.2497264738076845e+00
R2L_t[18] 4.2746933761095338e+00
R2L_t[19] 4.3747240948200412e+00
R2L_t[20] 4.4831333624364076e+00
R2L_t[21] 4.62978311780872
R2L_t[22] 4.8228816068473606e+00
R2L_t[23] 5.04453998907688
R2L_t[24] 5.7374955466838005e+00
R2L_t[25] 1.2623354868471074e+01
R2L_Psi_t[1] 9.8024327612959192e-02
R2L_Psi_t[2] 0.0790758481254785
R2L_Psi_t[3] 0.0715418956101666
R2L_Psi_t[4] 6.5772693298086660e-02
R2L_Psi_t[5] 6.1169157807392863e-02
R2L_Psi_t[6] 0.0581587912125707
R2L_Psi_t[7] 5.5531214313981926e-02
R2L_Psi_t[8] 5.3210872061025843e-02
R2L_Psi_t[9] 5.2588884781668351e-02
R2L_Psi_t[10] 5.1982888903557935e-02
R2L_Psi_t[11] 5.1392183076733121e-02
R2L_Psi_t[12] 5.1241254622607514e-02
R2L_Psi_t[13] 5.1090355591829173e-02
R2L_Psi_t[14] 5.0939490099679290e-02
R2L_Psi_t[15] 5.0374448273979057e-02
R2L_Psi_t[16] 4.9822959433282091e-02
R2L_Psi_t[17] 4.9284467661113537e-02
R2L_Psi_t[18] 5.0405209953381186e-02
R2L_Psi_t[19] 5.1617273601190672e-02
R2L_Psi_t[20] 5.2933411157121052e-02
R2L_Psi_t[21] 5.5037277224612151e-02
R2L_Psi_t[22] 5.7436640845522177e-02
R2L_Psi_t[23] 6.0206549198248339e-02
R2L_Psi_t[24] 7.3596985006131321e-02
R2L_phi_n[1] 1.7024467524606735e-07
R2L_phi_n[2] 1.8750754409047429e+03
R2L_phi_n[3] 932.63618476095
R2L_phi_n[4] 1.4538394005891112e+03
R2L_phi_n[5] 0
R2L_phi_n[6] 1.2634030750558118e+03
R2L_phi_n[7] 1.1579704383179935e+03
R2L_phi_n[8] 1.1513236206815634e+03
R2L_phi_n[9] 1.1201712526949946e+03
R2L_phi_n[10] 1.1071697915117293e+03
R2L_phi_n[11] 1.0944995275345384e+03
R2L_phi_n[12] 1.0866473601352411e+03
R2L_phi_n[13] 1.0834517150605052e+03
R2L_phi_n[14] 1.0802567366054034e+03
R2L_phi_n[15] 1.0726769573981408e+03
R2L_phi_n[16] 1.0608555166635451e+03
R2L_phi_n[17] 1.0493151787179468e+03
R2L_phi_n[18] 0
R2L_phi_n[19] 1.0801787888444546e+03
R2L_phi_n[20] 1.1069465092435573e+03
R2L_phi_n[21] 1.1431563253848690e+03
R2L_phi_n[22] 1.1908349646536692e+03
R2L_phi_n[23] 1.2455654294016988e+03
R2L_phi_n[24] 1.2010004421504171e+04
R2L_phi_n[25] 2.0447666231938194e+04
R2L_phi_b[1] 3.7362517047745037e+03
R2L_phi_b[2] 0
R2L_phi_b[3] 5.9584717846724777e+02
R2L_phi_b[4] 0
R2L_phi_b[5] 1.2096147945339917e+03
R2L_phi_b[6] 0
R2L_phi_b[7] 4.1166035953489434e+01
R2L_phi_b[8] 0
R2L_phi_b[9] 0
R2L_phi_b[10] 0
R2L_phi_b[11] 0
R2L_phi_b[12] 0
R2L_phi_b[13] 0
R2L_phi_b[14] 0
R2L_phi_b[15] 0
R2L_phi_b[16] 0
R2L_phi_b[17] 0
R2L_phi_b[18] 949.931861357674
R2L_phi_b[19] 0
R2L_phi_b[20] 0
R2L_phi_b[21] 0
R2L_phi_b[22] 0
R2L_phi_b[23] 0
R2L_phi_b[24] 0
R2L_phi_b[25] 3.4600681398049232e+03
R2L_w0[1] 2.8659406203136446e+00
R2L_w0[2] 3.2529343878152659e+00
R2L_w0[3] 3.4964497714147758e+00
R2L_w0[4] 3.7410243786460624e+00
R2L_w0[5] 3.9869055925132018e+00
R2L_w0[6] 4.1796910191038430e+00
R2L_w0[7] 4.3738239912828867e+00
R2L_w0[8] 4.5693595051246332e+00
R2L_w0[9] 4.6261627077878167e+00
R2L_w0[10] 4.6834525199079016e+00
R2L_w0[11] 4.7412335974716511e+00
R2L_w0[12] 4.7563093512104411e+00
R2L_w0[13] 4.7715192797305841e+00
R2L_w0[14] 4.78686456604762
R2L_w0[15] 4.84553356298733
R2L_w0[16] 4.9047069180789444e+00
R2L_w0[17] 4.9643893855792021e+00
R2L_w0[18] 4.8422893005671481e+00
R2L_w0[19] 4.7189847933623588e+00
R2L_w0[20] 4.5944545520783935e+00
R2L_w0[21] 4.4134117024244057e+00
R2L_w0[22] 4.2304361041603391e+00
R2L_w0[23] 4.0454612412954445e+00
R2L_w0[24] 3.4226909632968274e+00
R2L_w0[25] 2.0905450000000005e+00
R2L_wi[1] 3.4593999999997322e+00
R2L_wi[2] 3.4593999999466178e+01
R2L_wi[3] 3.4593999999466355e+01
R2L_wi[4] 3.4593999999468707e+01
R2L_wi[5] 3.4593999999491409e+01
R2L_wi[6] 2.5896381089951319e+01
R2L_wi[7] 2.5896381089955867e+01
R2L_wi[8] 2.5896381089956776e+01
R2L_wi[9] 3.4594000103662381e+00
R2L_wi[10] 3.4594000103662381e+00
R2L_wi[11] 3.4594000103626605e+00
R2L_wi[12] -3.4593999999999663e+00
R2L_wi[13] -3.4593999999999663e+00
R2L_wi[14] -3.4594000414793529e+00
R2L_wi[15] 3.4593999999999880e+00
R2L_wi[16] 3.4593999999974403e+00
R2L_wi[17] 3.4593999999999880e+00
R2L_wi[18] -2.5767030075520779e+01
R2L_wi[19] -2.5767030075521689e+01
R2L_wi[20] -2.5767030075519870e+01
R2L_wi[21] -3.4593999999044172e+01
R2L_wi[22] -3.4593999999044172e+01
R2L_wi[23] -34.5940000000046
R2L_wi[24] -3.4593999999997322e+00
R2L_wi[25] -3.4593999999997322e+00
R2L_wtn[1] 3.1117410159392966e-01
R2L_wtn[2] 4.7817126134125781e-01
R2L_wtn[3] 0.584184865866359
R2L_wtn[4] 6.9116213250702674e-01
R2L_wtn[5] 7.9910930158125881e-01
R2L_wtn[6] 8.8397594143611513e-01
R2L_wtn[7] 9.6960946778402612e-01
R2L_wtn[8] 1.0560158437341738e+00
R2L_wtn[9] 1.0811433092281695e+00
R2L_wtn[10] 1.1064973151697843e+00
R2L_wtn[11] 1.1320798345927294e+00
R2L_wtn[12] 1.1387563994265113e+00
R2L_wtn[13] 1.1454931236849279e+00
R2L_wtn[14] 1.1522905446723335e+00
R2L_wtn[15] 1.1782856253715159e+00
R2L_wtn[16] 1.2045148086293493e+00
R2L_wtn[17] 1.2309801373215195e+00
R2L_wtn[18] 1.1768478791432455e+00
R2L_wtn[19] 1.1222279003629585e+00
R2L_wtn[20] 1.0671154912061831e+00
R2L_wtn[21] 0.987091261432753
R2L_wtn[22] 9.0634412378742757e-01
R2L_wtn[23] 8.2486659582955435e-01
R2L_wtn[24] 0.552015333933643
R2L_wtn[25] 2.9900000000000005e-05
R2L_T 1.4235019807108534e+02
R2L_varpi[0] 60
R2L_varpi[1] 2.4186395451543092e+01
R2L_varpi[2] 1.0344222164656168e+01
R2L_varpi[3] 1.5073168019383935e+01
R2L_varpi[4] 1.5073168019383935e+01
R2L_varpi[5] 2.4673285433522672e+01
R2L_varpi[6] 2.4673285431115037e+01
R2L_varpi[7] 25
R2L_varpi[8] 25
R2L_varpi[9] 25
R2L_varpi[10] 25
R2L_varpi[11] 25
R2L_varpi[12] 25
R2L_varpi[13] 25
R2L_varpi[14] 25
R2L_varpi[15] 25
R2L_varpi[16] 25
R2L_varpi[17] 25
R2L_varpi[18] 3.2539141750154620e+01
R2L_varpi[19] 3.2539141750154620e+01
R2L_varpi[20] 3.2539141750154620e+01
R2L_varpi[21] 3.2539141750154620e+01
R2L_varpi[22] 3.2539141748834311e+01
R2L_varpi[23] 3.2539141747579976e+01
R2L_varpi[24] 3.2539141747579976e+01
R2L_varpi[25] 60
R2L_kappa_plus[0] 0
R2L_kappa_plus[1] 4.9061445234220935e+02
R2L_kappa_plus[2] 2.3288729917458096e+02
R2L_kappa_plus[3] 0
R2L_kappa_plus[4] 0
R2L_kappa_plus[5] 0
R2L_kappa_plus[6] 0
R2L_kappa_plus[7] 0
R2L_kappa_plus[8] 0
R2L_kappa_plus[9] 0
R2L_kappa_plus[10] 0
R2L_kappa_plus[11] 0
R2L_kappa_plus[12] 0
R2L_kappa_plus[13] 0
R2L_kappa_plus[14] 0
R2L_kappa_plus[15] 0
R2L_kappa_plus[16] 0
R2L_kappa_plus[17] 0
R2L_kappa_plus[18] 0
R2L_kappa_plus[19] 0
R2L_kappa_plus[20] 0
R2L_kappa_plus[21] 0
R2L_kappa_plus[22] 0
R2L_kappa_plus[23] 0
R2L_kappa_plus[24] 0
R2L_kappa_plus[25] 0
R2L_kappa_minus[0] 0
R2L_kappa_minus[1] 4.9061445235623785e+02
R2L_kappa_minus[2] 0
R2L_kappa_minus[3] 9.2257986686703035e+01
R2L_kappa_minus[4] 0
R2L_kappa_minus[5] 4.9623109883616041e+02
R2L_kappa_minus[6] 0
R2L_kappa_minus[7] 500
R2L_kappa_minus[8] 0
R2L_kappa_minus[9] 500
R2L_kappa_minus[10] 0
R2L_kappa_minus[11] 0
R2L_kappa_minus[12] 2.2628033029313497e+02
R2L_kappa_minus[13] 500
R2L_kappa_minus[14] 500
R2L_kappa_minus[15] 500
R2L_kappa_minus[16] 0
R2L_kappa_minus[17] 500
R2L_kappa_minus[18] 2.2608183983782021e+02
R2L_kappa_minus[19] 0
R2L_kappa_minus[20] 0
R2L_kappa_minus[21] 2.2328779560187942e+02
R2L_kappa_minus[22] 0
R2L_kappa_minus[23] 0
R2L_kappa_minus[24] 2.3885694601932883e+02
R2L_kappa_minus[25] 500
R2L_xi[1] 8.2487658778800578e+03
R2L_xi[2] 1.7441138341477524e+03
R2L_xi[3] 7.7154910005668e-07
R2L_xi[4] 0
R2L_xi[5] 3.5251056718947144e-07
R2L_xi[6] 3.0336197821237177e-07
R2L_xi[7] 2.7398364350370117e-07
R2L_xi[8] 0
R2L_xi[9] 0
R2L_xi[10] 0
R2L_xi[11] 2.2405848676983995e-07
R2L_xi[12] 0
R2L_xi[13] 2.1043749132242508e-07
R2L_xi[14] 2.0453909856980802e-07
R2L_xi[15] 1.9915657491265169e-07
R2L_xi[16] 0
R2L_xi[17] 0
R2L_xi[18] 0
R2L_xi[19] 0
R2L_xi[20] 0
R2L_xi[21] 0
R2L_xi[22] 1.6635880120050345e-07
R2L_xi[23] 1.5804634265176960e-07
R2L_xi[24] 0
R2L_xi[25] 0
